Instance Name : r109
Date : 2022-07-18
Solution
Route 1 : 12 29 78 79 3 50 26
Route 2 : 52 88 7 82 18 6 96 97 13 58
Route 3 : 62 11 64 63 90 32 10
Route 4 : 27 31 19 47 36 49 46 48
Route 5 : 59 14 44 86 38 43 37 100 91 93
Route 6 : 40 21 73 22 41 74 56 4
Route 7 : 5 83 8 45 84 17 60 89
Route 8 : 72 75 23 67 39 25 55 54 24 80
Route 9 : 2 42 15 57 87 53
Route 10 : 95 92 98 16 61 85 99 94
Route 11 : 69 30 51 71 65 66 20 70 1
Route 12 : 28 76 33 81 9 35 34 68 77
